DIMENSION: 10
EDGE_WEIGHT_TYPE : EUC_2D
NODE_COORD_SECTION
1 18.00 39.00
2 39.00 59.00
3 91.00 80.00
4 49.00 36.00
5 29.00 9.00
6 7.00 49.00
7 15.00 9.00
8 60.00 80.00
9 41.00 15.00
10 1.00 99.00
TOUR_SECTION
6
10
8
3
2
4
9
5
7
1